(set-logic ALL)
(set-option :produce-models true)
(declare-sort BoundSet 0)
(declare-sort UnboundSet 0)
(set-option :finite-model-find true)
(declare-fun IsMan (BoundSet) Bool)
(declare-fun Scales (BoundSet BoundSet) Bool)
(declare-fun IsRockClimbing (BoundSet) Bool)
(assert (not (=> (exists ((b BoundSet)) (exists ((a BoundSet)) (and (IsMan a) (Scales a b)))) (exists ((a BoundSet)) (and (IsMan a) (IsRockClimbing a))))))
(check-sat)
(get-model)